(set-logic QF_S)
(set-option :parse-transducers true)
(set-option :produce-models true)
(define-fun-rec toLower ((x String) (y String)) Bool
   (or (and (= x "") (= y ""))
       (and (not (= x "")) (not (= y ""))
           (= (char.code (str.head y))
               (ite (and (<= 65 (char.code (str.head x)))
                       (<= (char.code (str.head x)) 90))
                   (+ (char.code (str.head x)) 32)
                   (char.code (str.head x))))
           (toLower (str.tail x) (str.tail y))))
)
(declare-fun sym205 () String)
(declare-fun sym547 () String)
(declare-fun sym813 () String)
(declare-fun sym3609 () String)
(declare-fun sym1904 () String)
(declare-fun sym2768 () String)
(declare-fun sym4659 () String)
(declare-fun sym1689 () String)
(declare-fun sym4965 () String)
(declare-fun sym3402 () String)
(declare-fun sym3821 () String)
(declare-fun sym4866 () String)
(declare-fun sym2335 () String)
(declare-fun sym4447 () String)
(declare-fun sym1258 () String)
(declare-fun sym1035 () String)
(declare-fun sym4028 () String)
(declare-fun sym1476 () String)
(declare-fun sym2122 () String)
(declare-fun sym2981 () String)
(declare-fun sym2550 () String)
(declare-fun sym3197 () String)
(declare-fun sym161 () String)
(declare-fun sym4240 () String)
(declare-fun L38  () String)
(declare-fun L17  () String)
(declare-fun L39  () String)
(declare-fun L18  () String)
(declare-fun L12  () String)
(declare-fun L45  () String)
(declare-fun L24  () String)
(declare-fun L46  () String)
(declare-fun L9  () String)
(declare-fun L14  () String)
(declare-fun L25  () String)
(declare-fun L36  () String)
(declare-fun L15  () String)
(declare-fun L7  () String)
(declare-fun L8  () String)
(declare-fun L5  () String)
(declare-fun L10  () String)
(declare-fun L6  () String)
(declare-fun L4  () String)
(declare-fun L1  () String)
(declare-fun L50  () String)
(declare-fun L2  () String)
(declare-fun L0  () String)
(assert (toLower (str.substr sym547  0 1) L0 ))
(assert (toLower (str.substr sym1035  0 1) L2 ))
(assert (toLower (str.substr sym1258  0 1) L50 ))
(assert (toLower (str.substr sym4965  0 1) L1 ))
(assert (toLower (str.substr sym2981  0 1) L4 ))
(assert (toLower (str.substr sym4028  0 1) L6 ))
(assert (toLower (str.substr sym2335  0 1) L10 ))
(assert (toLower (str.substr sym3402  0 1) L5 ))
(assert (toLower (str.substr sym3821  0 1) L8 ))
(assert (toLower (str.substr sym4240  0 1) L7 ))
(assert (toLower (str.substr sym2768  0 1) L15 ))
(assert (toLower (str.substr sym3197  0 1) L36 ))
(assert (toLower (str.substr sym813  0 1) L25 ))
(assert (toLower (str.substr sym1904  0 1) L14 ))
(assert (toLower (str.substr sym2550  0 1) L9 ))
(assert (toLower (str.substr sym1476  0 1) L46 ))
(assert (toLower (str.substr sym1689  0 1) L24 ))
(assert (toLower (str.substr sym4447  0 1) L45 ))
(assert (toLower (str.substr sym3609  0 1) L12 ))
(assert (toLower (str.substr sym4659  0 1) L18 ))
(assert (toLower (str.substr sym4866  0 1) L39 ))
(assert (toLower (str.substr sym2122  0 1) L17 ))
(assert (toLower (str.substr sym205  0 1) L38 ))

(assert (not (= L0 "q" )))
(assert (not (= L1 "y" )))
(assert (= L2 "h" ))
(assert (not (= L2 "q" )))
(assert (not (= "" sym3609 )))
(assert (not (= "" sym2768 )))
(assert (not (= L4 "k" )))
(assert (not (= L5 "p" )))
(assert (not (= L6 "q" )))
(assert (not (= L7 "p" )))
(assert (= L8 "k" ))
(assert (not (= "" sym4866 )))
(assert (not (= "" sym4240 )))
(assert (not (= L9 "q" )))
(assert (not (= L10 "g" )))
(assert (not (= L2 "l" )))
(assert (not (= L12 "q" )))
(assert (not (= L8 "p" )))
(assert (not (= L14 "q" )))
(assert (not (= L15 "q" )))
(assert (not (= L4 "q" )))
(assert (not (= L17 "q" )))
(assert (not (= L18 "p" )))
(assert (not (= L10 "r" )))
(assert (not (= "y" "n" )))
(assert (not (= "" sym2335 )))
(assert (not (= "" "y" )))
(assert (not (= "" sym547 )))
(assert (not (= "" sym205 )))
(assert (= L12 "p" ))
(assert (not (= L15 "p" )))
(assert (not (= L2 "k" )))
(assert (= L5 "k" ))
(assert (not (= L24 "r" )))
(assert (= "y" "y" ))
(assert (not (= L25 "p" )))
(assert (not (= L24 "p" )))
(assert (= L0 "p" ))
(assert (not (= L10 "k" )))
(assert (not (= L17 "p" )))
(assert (not (= L25 "q" )))
(assert (not (= "" sym1035 )))
(assert (= L18 "k" ))
(assert (not (= L10 "l" )))
(assert (not (= L24 "l" )))
(assert (not (= "" "q" )))
(assert (not (= L4 "r" )))
(assert (not (= "" sym813 )))
(assert (not (= "" sym1904 )))
(assert (= L10 "h" ))
(assert (not (= "" "y" )))
(assert (= L36 "p" ))
(assert (not (= "" sym4965 )))
(assert (not (= "n" "y" )))
(assert (not (= "" sym2550 )))
(assert (not (= "" sym4447 )))
(assert (not (= "" L1 )))
(assert (= L38 "y" ))
(assert (not (= "" sym3197 )))
(assert (= L39 "p" ))
(assert (= L17 "k" ))
(assert (not (= L4 "g" )))
(assert (not (= L10 "q" )))
(assert (not (= "" sym3402 )))
(assert (not (= L18 "q" )))
(assert (= L25 "k" ))
(assert (not (= "" sym1258 )))
(assert (not (= "" sym2981 )))
(assert (= "" "" ))
(assert (= L45 "p" ))
(assert (not (= L46 "p" )))
(assert (= L15 "k" ))
(assert (not (= "" sym4028 )))
(assert (not (= L39 "q" )))
(assert (not (= L8 "q" )))
(assert (= L50 "p" ))
(assert (not (= L7 "q" )))
(assert (= L6 "p" ))
(assert (not (= L24 "g" )))
(assert (not (= L5 "q" )))
(assert (= L14 "p" ))
(assert (not (= "" sym1476 )))
(assert (not (= L50 "q" )))
(assert (not (= "" sym1689 )))
(assert (= L4 "h" ))
(assert (not (= L4 "l" )))
(assert (= L9 "p" ))
(assert (not (= L46 "q" )))
(assert (not (= L45 "q" )))
(assert (not (= L2 "g" )))
(assert (not (= "" "n" )))
(assert (not (= "" L38 )))
(assert (not (= L4 "p" )))
(assert (not (= L2 "r" )))
(assert (= L46 "k" ))
(assert (not (= "" sym4659 )))
(assert (= L24 "h" ))
(assert (not (= L24 "k" )))
(assert (not (= "" sym3821 )))
(assert (not (= L36 "q" )))
(assert (not (= "" sym2122 )))
(assert (= L7 "k" ))
(assert (not (= "" sym161 )))
(assert (not (= L10 "p" )))
(assert (not (= L2 "p" )))
(assert (not (= L24 "q" )))
(check-sat)
(get-model)
(exit)
